HUN,8,6,885
3,24,5,23,1,21,0,23,4,28,2,21
5,26,0,25,3,25,1,27,2,23,4,30
5,25,0,22,4,30,3,21,1,25,2,29
4,29,0,22,5,27,1,27,3,27,2,23
3,28,0,26,1,23,4,30,2,27,5,30
0,22,5,30,3,24,2,24,4,30,1,24
1,22,2,27,4,28,0,27,5,26,3,23
3,27,4,26,5,23,2,21,0,30,1,21
